l=8224;
a=2;
setup_costs=[|2,2,
|2,2,
|0,0|];
setup_times=[|2,2,
|2,2,
|0,0|];
m=2;
min_cap=[0,0];
max_cap=[40,76];

initState=[1,2];
s=3;
m_a_s = [|577,5727,8133,
|0,0,4563|];
m_a_e = [|2411,7041,8176,
|0,0,5594|];
n=250;
eligible_machine = [{1},
{1},
{2},
{2},
{1},
{2},
{1},
{1},
{2},
{1},
{1},
{2},
{2,1},
{1},
{1},
{2},
{2},
{1,2},
{2,1},
{2},
{2},
{2},
{1},
{1,2},
{1,2},
{1},
{1,2},
{1},
{1},
{1,2},
{1,2},
{2},
{2},
{1},
{1,2},
{1},
{2,1},
{1},
{2},
{1,2},
{2},
{1},
{2},
{2},
{2},
{1},
{1},
{1},
{1},
{2},
{1},
{1},
{2,1},
{1},
{1},
{2},
{2},
{2,1},
{1},
{1},
{1,2},
{1},
{1},
{1},
{1},
{2},
{2},
{2},
{2},
{2},
{2},
{1},
{1},
{2},
{2},
{1},
{2},
{2},
{2},
{1},
{1},
{1},
{2},
{2},
{1,2},
{2},
{2,1},
{1},
{2},
{2},
{2},
{2,1},
{1},
{2},
{2},
{2},
{2,1},
{1},
{1},
{1},
{2},
{2,1},
{2},
{2},
{2},
{1,2},
{1},
{1},
{1},
{2},
{2},
{1},
{2},
{2,1},
{1},
{2},
{2},
{2},
{1},
{1},
{2,1},
{1},
{1},
{1},
{1},
{2,1},
{2,1},
{2,1},
{1,2},
{1,2},
{2},
{1},
{2},
{2},
{1,2},
{1},
{2},
{2,1},
{2},
{2,1},
{2},
{1},
{2},
{1,2},
{2},
{2},
{1},
{2,1},
{1},
{1},
{1,2},
{2},
{2},
{2},
{1},
{1},
{1},
{2},
{2},
{2},
{2},
{2},
{2},
{2},
{1},
{1},
{1,2},
{2},
{1,2},
{2},
{2},
{2},
{1},
{2,1},
{2},
{1},
{2,1},
{2},
{1},
{1},
{2,1},
{1},
{1},
{1},
{1},
{1},
{1},
{1},
{2},
{2,1},
{1},
{1},
{2},
{1,2},
{2},
{1},
{1},
{1},
{1},
{1},
{2,1},
{2},
{1},
{1,2},
{1},
{1},
{2,1},
{1},
{1},
{1},
{1},
{1},
{1},
{2},
{2},
{2},
{1},
{1,2},
{2,1},
{1},
{1},
{2},
{2},
{2},
{2,1},
{2,1},
{1},
{2},
{2},
{2},
{2},
{1},
{2},
{1},
{1},
{1},
{1},
{2},
{1},
{1},
{2},
{1},
{1,2},
{2},
{1},
{2},
{1},
{2,1},
{2},
{1}];
earliest_start=[101,343,537,416,592,9,565,385,535,485,128,12,390,53,152,490,532,427,10,550,521,117,381,430,630,180,454,331,284,454,524,164,412,632,115,174,203,290,26,124,233,348,423,346,407,106,197,347,628,334,156,248,612,622,228,677,654,107,479,411,248,234,100,81,653,656,292,451,631,670,286,241,400,579,316,173,387,34,22,523,675,106,396,643,297,276,245,482,404,131,213,96,504,307,568,692,247,341,385,444,507,439,409,650,47,607,540,32,306,55,289,619,85,649,428,142,531,150,476,377,411,502,46,500,457,190,430,93,10,316,619,45,341,270,16,236,389,438,595,382,428,212,176,348,534,286,11,547,572,426,161,96,558,8,32,4,392,602,192,550,177,447,22,683,129,243,277,507,632,192,445,92,248,93,641,199,326,390,658,170,178,575,214,276,155,522,180,333,238,12,536,480,245,44,205,674,189,186,219,290,9,196,607,379,674,69,541,464,59,526,370,1,636,22,371,294,233,438,527,299,62,636,269,620,348,658,539,203,580,660,9,140,171,367,161,675,660,527,295,86,674,409,274,405,334,534,536,223,366,604];
latest_end=[110,360,547,429,593,10,568,393,548,491,141,30,394,64,156,506,551,432,17,552,534,118,386,432,637,190,460,342,286,455,531,182,417,641,121,182,207,303,40,129,244,358,436,359,414,116,213,360,636,346,159,252,624,626,233,684,659,113,486,420,260,238,108,96,655,675,302,456,633,680,292,244,404,580,319,174,389,47,31,535,685,112,402,650,307,277,248,491,412,148,214,108,509,316,580,699,252,346,390,455,519,444,418,658,52,625,541,43,308,59,294,625,94,655,441,143,532,151,490,378,420,511,57,507,472,198,443,105,13,324,627,61,347,271,27,240,400,453,598,393,429,219,187,353,542,294,13,561,588,434,167,99,567,14,51,5,401,608,205,558,178,453,29,692,135,249,280,515,642,197,448,95,260,106,642,215,331,399,673,175,187,580,226,286,156,528,186,349,239,25,545,485,248,57,218,686,192,189,230,300,12,203,610,384,683,75,546,471,65,545,381,10,645,27,381,307,240,447,533,300,65,639,278,629,361,669,542,207,598,667,22,141,172,383,163,678,661,533,298,96,676,423,284,407,337,551,548,236,378,605];
min_time=[6,9,6,10,1,1,2,6,8,5,9,10,3,6,4,9,10,3,4,2,9,1,5,2,6,6,5,8,2,1,4,10,3,8,4,5,3,8,10,4,9,8,10,7,6,7,9,9,5,8,2,3,7,4,3,5,5,4,5,5,7,4,5,8,2,10,8,5,2,10,6,3,3,1,3,1,2,9,7,9,8,6,4,4,9,1,3,9,6,9,1,9,3,6,8,6,4,3,5,6,10,5,8,6,3,10,1,7,2,3,4,6,8,6,8,1,1,1,9,1,7,9,10,4,9,7,10,7,3,7,8,9,4,1,10,3,9,8,2,10,1,7,7,3,5,5,2,8,9,7,6,3,5,5,10,1,5,4,7,6,1,4,4,5,6,6,3,7,6,5,3,3,10,9,1,10,3,8,9,5,6,3,9,7,1,5,5,10,1,10,8,5,2,7,9,7,3,2,7,10,3,5,2,5,5,4,4,6,4,10,8,8,6,3,10,9,6,8,4,1,2,3,7,7,7,8,2,3,10,4,8,1,1,9,2,2,1,4,3,8,2,9,6,2,2,10,10,9,7,1];
max_time=[10,10,10,10,10,10,10,10,10,10,10,10,10,10,10,10,10,10,10,10,10,10,10,10,10,10,10,10,10,10,10,10,10,10,10,10,10,10,10,10,10,10,10,10,10,10,10,10,10,10,10,10,10,10,10,10,10,10,10,10,10,10,10,10,10,10,10,10,10,10,10,10,10,10,10,10,10,10,10,10,10,10,10,10,10,10,10,10,10,10,10,10,10,10,10,10,10,10,10,10,10,10,10,10,10,10,10,10,10,10,10,10,10,10,10,10,10,10,10,10,10,10,10,10,10,10,10,10,10,10,10,10,10,10,10,10,10,10,10,10,10,10,10,10,10,10,10,10,10,10,10,10,10,10,10,10,10,10,10,10,10,10,10,10,10,10,10,10,10,10,10,10,10,10,10,10,10,10,10,10,10,10,10,10,10,10,10,10,10,10,10,10,10,10,10,10,10,10,10,10,10,10,10,10,10,10,10,10,10,10,10,10,10,10,10,10,10,10,10,10,10,10,10,10,10,10,10,10,10,10,10,10,10,10,10,10,10,10,10,10,10,10,10,10,10,10,10,10,10,10];
size=[5,1,1,4,4,3,5,2,3,5,5,3,2,5,4,5,2,3,2,3,3,3,3,3,3,1,5,4,4,2,3,1,5,2,3,3,5,5,1,5,1,1,5,2,5,3,2,1,4,2,1,1,4,4,5,4,5,1,5,1,1,4,2,5,5,3,3,3,3,4,4,4,4,4,5,2,4,1,2,2,1,1,3,1,5,1,1,2,5,4,3,5,3,4,1,2,3,3,4,3,4,4,3,4,2,1,1,4,4,5,5,1,3,2,2,5,2,3,3,5,1,5,3,4,3,2,4,4,1,1,3,5,5,3,5,1,5,4,3,3,3,1,4,1,3,2,2,5,4,4,2,5,2,2,2,2,5,2,5,5,4,5,4,2,4,3,2,1,3,1,5,3,4,3,2,4,4,3,3,3,2,1,2,5,4,2,3,5,2,2,2,5,5,2,4,1,4,1,5,2,5,2,4,3,5,4,1,5,2,3,2,3,5,1,1,5,2,5,4,5,5,3,5,5,5,2,3,5,1,5,1,2,3,3,1,2,5,5,4,3,5,5,4,5,3,5,1,5,3,3];
attribute=[2,1,2,2,2,1,2,2,2,1,1,1,2,1,2,1,2,2,1,2,1,2,1,2,1,1,2,1,2,1,2,1,1,2,2,2,2,2,1,2,2,2,2,2,1,1,2,1,2,1,1,1,1,1,2,2,1,1,2,1,2,2,2,1,2,2,2,1,2,2,1,2,2,2,1,2,2,2,2,2,1,2,1,1,2,2,2,2,1,2,1,1,1,1,2,2,2,1,2,2,1,1,1,2,1,2,1,1,2,1,2,1,1,1,1,2,1,1,1,2,2,1,1,2,2,2,1,1,1,2,1,1,1,2,1,2,2,1,1,2,1,1,1,1,2,1,1,2,2,2,2,2,1,1,1,1,1,2,2,1,2,2,2,2,1,2,1,1,1,2,1,2,2,2,2,1,2,1,1,2,2,2,2,2,2,2,2,2,2,2,2,1,1,2,2,1,2,2,2,2,1,2,1,1,1,1,1,1,2,2,1,2,1,1,2,1,2,1,2,2,2,2,1,2,2,1,2,2,2,1,1,1,1,2,1,2,1,2,2,2,2,1,2,2,2,2,1,2,2,2];

upper_bound_integer_objective=7500;
mult_factor_total_runtime=2;
mult_factor_finished_toolate=12;
mult_factor_total_setuptimes=0;
mult_factor_total_setupcosts=3;
running_time_bound=1383;
min_duration=1;
max_duration=10;
max_setup_time=2;
max_setup_cost=2;
